StudentsNr = 5;
InstructorsNr = 8;
DaysNr = 1;
SlotsPerDay = 8;
AvailabilitySlotsLenght = 2;
RoomNr = 2;
ProgrammNr = 1;
DegreeNr = 2;
RolesNr = 3;
CoursesNr = 5;
InstructorsProgramm = [{1}, {1}, {1}, {1}, {1}, {1}, {1}, {1}];
InstructorRolesPerProgramm = [|{6, 8}, {4}, {1, 6, 8}|];
InstructorsAvailability = [|1, 1, 1, 1, |0, 1, 1, 1, |0, 0, 1, 1, |0, 0, 1, 1, |0, 1, 1, 1, |0, 0, 1, 1, |1, 1, 1, 1, |1, 1, 1, 1|];
StudentsProgramm = [1, 1, 1, 1, 1];
StudentsDegree = [1, 1, 2, 1, 2];
StudentsSupervisorId = [5, 1, 6, 1, 4];
StudentsCourseIds = [{1, 2, 3, 4, 5}, {1, 2, 3, 4, 5}, {2}, {1, 2, 3, 4, 5}, {3}];
StudentsAvailability = [|1, 0, 1, 1, |1, 0, 1, 1, |1, 0, 1, 1, |0, 0, 0, 0, |1, 1, 1, 1|];
TheoryticalMinCard = [0, 0, 0, 0, 0];
CoursesInstructorIds = [{4, 5, 6}, {1, 4, 5}, {7, 8}, {2, 4, 5, 6}, {1}];
RolesDemands = [1, 1, 3];
RolesContinuity = [];
ExamLen = [1, 1, 1, 1, 1];
LunchTsMinLen = 2;
LunchStarts = [4..5];
SupervisorAvailable = 5;
OptimalLunchLenght = [2, 2];
OptimalStartTs = [1, 2];
OptimalFinishTs = [1, 7];
MinimizeRooms = 500;
RolesSoftContinuity = [|1, 2, 3|2, 1, 0|];
SameDegreeInRoom = 0;
Mergeability = 0;
